p cnf 15 31
-15 -13 -2 0
15 -11 4 0
-15 10 -1 0
-15 -8 -2 0
15 7 4 0
-15 7 3 0
-15 -6 -2 0
14 -12 -5 0
-14 10 -9 0
-14 -8 1 0
13 12 -3 0
-13 -10 4 0
-13 -9 -1 0
13 -8 6 0
-13 8 6 0
13 7 2 0
-12 -11 7 0
12 11 5 0
-12 -8 -7 0
12 8 1 0
-12 -7 -6 0
-11 -9 8 0
-10 -9 1 0
-10 8 -5 0
-10 8 5 0
9 8 -4 0
9 7 -3 0
9 5 -4 0
8 5 4 0
8 5 -2 0
-7 -6 -4 0
